p cnf 150 1100
1 2 3 0
4 5 6 0
7 8 9 0
10 11 12 0
13 14 15 0
16 17 18 0
19 20 21 0
22 23 24 0
25 26 27 0
28 29 30 0
31 32 33 0
34 35 36 0
37 38 39 0
40 41 42 0
43 44 45 0
46 47 48 0
49 50 51 0
52 53 54 0
55 56 57 0
58 59 60 0
61 62 63 0
64 65 66 0
67 68 69 0
70 71 72 0
73 74 75 0
76 77 78 0
79 80 81 0
82 83 84 0
85 86 87 0
88 89 90 0
91 92 93 0
94 95 96 0
97 98 99 0
100 101 102 0
103 104 105 0
106 107 108 0
109 110 111 0
112 113 114 0
115 116 117 0
118 119 120 0
121 122 123 0
124 125 126 0
127 128 129 0
130 131 132 0
133 134 135 0
136 137 138 0
139 140 141 0
142 143 144 0
145 146 147 0
148 149 150 0
-1 -2 0
-1 -3 0
-2 -3 0
-4 -5 0
-4 -6 0
-5 -6 0
-7 -8 0
-7 -9 0
-8 -9 0
-10 -11 0
-10 -12 0
-11 -12 0
-13 -14 0
-13 -15 0
-14 -15 0
-16 -17 0
-16 -18 0
-17 -18 0
-19 -20 0
-19 -21 0
-20 -21 0
-22 -23 0
-22 -24 0
-23 -24 0
-25 -26 0
-25 -27 0
-26 -27 0
-28 -29 0
-28 -30 0
-29 -30 0
-31 -32 0
-31 -33 0
-32 -33 0
-34 -35 0
-34 -36 0
-35 -36 0
-37 -38 0
-37 -39 0
-38 -39 0
-40 -41 0
-40 -42 0
-41 -42 0
-43 -44 0
-43 -45 0
-44 -45 0
-46 -47 0
-46 -48 0
-47 -48 0
-49 -50 0
-49 -51 0
-50 -51 0
-52 -53 0
-52 -54 0
-53 -54 0
-55 -56 0
-55 -57 0
-56 -57 0
-58 -59 0
-58 -60 0
-59 -60 0
-61 -62 0
-61 -63 0
-62 -63 0
-64 -65 0
-64 -66 0
-65 -66 0
-67 -68 0
-67 -69 0
-68 -69 0
-70 -71 0
-70 -72 0
-71 -72 0
-73 -74 0
-73 -75 0
-74 -75 0
-76 -77 0
-76 -78 0
-77 -78 0
-79 -80 0
-79 -81 0
-80 -81 0
-82 -83 0
-82 -84 0
-83 -84 0
-85 -86 0
-85 -87 0
-86 -87 0
-88 -89 0
-88 -90 0
-89 -90 0
-91 -92 0
-91 -93 0
-92 -93 0
-94 -95 0
-94 -96 0
-95 -96 0
-97 -98 0
-97 -99 0
-98 -99 0
-100 -101 0
-100 -102 0
-101 -102 0
-103 -104 0
-103 -105 0
-104 -105 0
-106 -107 0
-106 -108 0
-107 -108 0
-109 -110 0
-109 -111 0
-110 -111 0
-112 -113 0
-112 -114 0
-113 -114 0
-115 -116 0
-115 -117 0
-116 -117 0
-118 -119 0
-118 -120 0
-119 -120 0
-121 -122 0
-121 -123 0
-122 -123 0
-124 -125 0
-124 -126 0
-125 -126 0
-127 -128 0
-127 -129 0
-128 -129 0
-130 -131 0
-130 -132 0
-131 -132 0
-133 -134 0
-133 -135 0
-134 -135 0
-136 -137 0
-136 -138 0
-137 -138 0
-139 -140 0
-139 -141 0
-140 -141 0
-142 -143 0
-142 -144 0
-143 -144 0
-145 -146 0
-145 -147 0
-146 -147 0
-148 -149 0
-148 -150 0
-149 -150 0
-1 -22 0
-1 -76 0
-1 -103 0
-1 -118 0
-1 -130 0
-4 -16 0
-4 -19 0
-4 -46 0
-4 -142 0
-7 -61 0
-7 -64 0
-7 -88 0
-7 -106 0
-7 -124 0
-7 -136 0
-10 -97 0
-10 -109 0
-10 -133 0
-10 -145 0
-13 -16 0
-13 -19 0
-13 -127 0
-13 -133 0
-16 -4 0
-16 -13 0
-16 -43 0
-16 -49 0
-16 -136 0
-19 -4 0
-19 -13 0
-19 -25 0
-19 -28 0
-19 -64 0
-19 -67 0
-22 -1 0
-22 -25 0
-22 -64 0
-22 -85 0
-22 -109 0
-22 -121 0
-22 -133 0
-25 -19 0
-25 -22 0
-25 -49 0
-25 -64 0
-25 -130 0
-25 -145 0
-28 -19 0
-28 -103 0
-28 -112 0
-28 -142 0
-31 -43 0
-31 -70 0
-31 -112 0
-31 -130 0
-31 -133 0
-34 -46 0
-34 -94 0
-34 -100 0
-34 -145 0
-37 -49 0
-37 -79 0
-37 -85 0
-37 -100 0
-37 -130 0
-37 -148 0
-40 -91 0
-40 -97 0
-40 -115 0
-40 -127 0
-40 -145 0
-43 -16 0
-43 -31 0
-43 -91 0
-43 -94 0
-43 -97 0
-43 -118 0
-43 -136 0
-46 -4 0
-46 -34 0
-46 -61 0
-46 -64 0
-46 -82 0
-46 -109 0
-46 -121 0
-46 -148 0
-49 -16 0
-49 -25 0
-49 -37 0
-49 -70 0
-49 -79 0
-49 -100 0
-49 -112 0
-52 -55 0
-52 -58 0
-52 -133 0
-55 -52 0
-55 -64 0
-55 -67 0
-55 -85 0
-55 -130 0
-55 -133 0
-58 -52 0
-58 -70 0
-58 -124 0
-58 -136 0
-58 -139 0
-58 -145 0
-61 -7 0
-61 -46 0
-61 -79 0
-61 -139 0
-64 -7 0
-64 -19 0
-64 -22 0
-64 -25 0
-64 -46 0
-64 -55 0
-64 -70 0
-64 -79 0
-64 -82 0
-64 -115 0
-64 -127 0
-67 -19 0
-67 -55 0
-67 -91 0
-67 -124 0
-67 -130 0
-70 -31 0
-70 -49 0
-70 -58 0
-70 -64 0
-70 -94 0
-70 -109 0
-70 -142 0
-73 -76 0
-73 -91 0
-73 -127 0
-73 -139 0
-73 -142 0
-76 -1 0
-76 -73 0
-76 -109 0
-76 -133 0
-76 -148 0
-79 -37 0
-79 -49 0
-79 -61 0
-79 -64 0
-82 -46 0
-82 -64 0
-82 -91 0
-82 -121 0
-82 -133 0
-85 -22 0
-85 -37 0
-85 -55 0
-85 -94 0
-85 -97 0
-85 -127 0
-85 -133 0
-88 -7 0
-88 -109 0
-88 -142 0
-91 -40 0
-91 -43 0
-91 -67 0
-91 -73 0
-91 -82 0
-91 -106 0
-91 -130 0
-94 -34 0
-94 -43 0
-94 -70 0
-94 -85 0
-94 -115 0
-97 -10 0
-97 -40 0
-97 -43 0
-97 -85 0
-97 -118 0
-97 -124 0
-100 -34 0
-100 -37 0
-100 -49 0
-100 -115 0
-100 -124 0
-103 -1 0
-103 -28 0
-103 -121 0
-103 -136 0
-106 -7 0
-106 -91 0
-106 -124 0
-106 -130 0
-106 -136 0
-106 -139 0
-106 -142 0
-109 -10 0
-109 -22 0
-109 -46 0
-109 -70 0
-109 -76 0
-109 -88 0
-109 -121 0
-112 -28 0
-112 -31 0
-112 -49 0
-112 -118 0
-112 -148 0
-115 -40 0
-115 -64 0
-115 -94 0
-115 -100 0
-115 -118 0
-115 -121 0
-115 -142 0
-115 -145 0
-118 -1 0
-118 -43 0
-118 -97 0
-118 -112 0
-118 -115 0
-118 -136 0
-118 -148 0
-121 -22 0
-121 -46 0
-121 -82 0
-121 -103 0
-121 -109 0
-121 -115 0
-121 -145 0
-121 -148 0
-124 -7 0
-124 -58 0
-124 -67 0
-124 -97 0
-124 -100 0
-124 -106 0
-124 -136 0
-124 -139 0
-127 -13 0
-127 -40 0
-127 -64 0
-127 -73 0
-127 -85 0
-127 -130 0
-130 -1 0
-130 -25 0
-130 -31 0
-130 -37 0
-130 -55 0
-130 -67 0
-130 -91 0
-130 -106 0
-130 -127 0
-130 -145 0
-133 -10 0
-133 -13 0
-133 -22 0
-133 -31 0
-133 -52 0
-133 -55 0
-133 -76 0
-133 -82 0
-133 -85 0
-136 -7 0
-136 -16 0
-136 -43 0
-136 -58 0
-136 -103 0
-136 -106 0
-136 -118 0
-136 -124 0
-139 -58 0
-139 -61 0
-139 -73 0
-139 -106 0
-139 -124 0
-142 -4 0
-142 -28 0
-142 -70 0
-142 -73 0
-142 -88 0
-142 -106 0
-142 -115 0
-145 -10 0
-145 -25 0
-145 -34 0
-145 -40 0
-145 -58 0
-145 -115 0
-145 -121 0
-145 -130 0
-148 -37 0
-148 -46 0
-148 -76 0
-148 -112 0
-148 -118 0
-148 -121 0
-2 -23 0
-2 -77 0
-2 -104 0
-2 -119 0
-2 -131 0
-5 -17 0
-5 -20 0
-5 -47 0
-5 -143 0
-8 -62 0
-8 -65 0
-8 -89 0
-8 -107 0
-8 -125 0
-8 -137 0
-11 -98 0
-11 -110 0
-11 -134 0
-11 -146 0
-14 -17 0
-14 -20 0
-14 -128 0
-14 -134 0
-17 -5 0
-17 -14 0
-17 -44 0
-17 -50 0
-17 -137 0
-20 -5 0
-20 -14 0
-20 -26 0
-20 -29 0
-20 -65 0
-20 -68 0
-23 -2 0
-23 -26 0
-23 -65 0
-23 -86 0
-23 -110 0
-23 -122 0
-23 -134 0
-26 -20 0
-26 -23 0
-26 -50 0
-26 -65 0
-26 -131 0
-26 -146 0
-29 -20 0
-29 -104 0
-29 -113 0
-29 -143 0
-32 -44 0
-32 -71 0
-32 -113 0
-32 -131 0
-32 -134 0
-35 -47 0
-35 -95 0
-35 -101 0
-35 -146 0
-38 -50 0
-38 -80 0
-38 -86 0
-38 -101 0
-38 -131 0
-38 -149 0
-41 -92 0
-41 -98 0
-41 -116 0
-41 -128 0
-41 -146 0
-44 -17 0
-44 -32 0
-44 -92 0
-44 -95 0
-44 -98 0
-44 -119 0
-44 -137 0
-47 -5 0
-47 -35 0
-47 -62 0
-47 -65 0
-47 -83 0
-47 -110 0
-47 -122 0
-47 -149 0
-50 -17 0
-50 -26 0
-50 -38 0
-50 -71 0
-50 -80 0
-50 -101 0
-50 -113 0
-53 -56 0
-53 -59 0
-53 -134 0
-56 -53 0
-56 -65 0
-56 -68 0
-56 -86 0
-56 -131 0
-56 -134 0
-59 -53 0
-59 -71 0
-59 -125 0
-59 -137 0
-59 -140 0
-59 -146 0
-62 -8 0
-62 -47 0
-62 -80 0
-62 -140 0
-65 -8 0
-65 -20 0
-65 -23 0
-65 -26 0
-65 -47 0
-65 -56 0
-65 -71 0
-65 -80 0
-65 -83 0
-65 -116 0
-65 -128 0
-68 -20 0
-68 -56 0
-68 -92 0
-68 -125 0
-68 -131 0
-71 -32 0
-71 -50 0
-71 -59 0
-71 -65 0
-71 -95 0
-71 -110 0
-71 -143 0
-74 -77 0
-74 -92 0
-74 -128 0
-74 -140 0
-74 -143 0
-77 -2 0
-77 -74 0
-77 -110 0
-77 -134 0
-77 -149 0
-80 -38 0
-80 -50 0
-80 -62 0
-80 -65 0
-83 -47 0
-83 -65 0
-83 -92 0
-83 -122 0
-83 -134 0
-86 -23 0
-86 -38 0
-86 -56 0
-86 -95 0
-86 -98 0
-86 -128 0
-86 -134 0
-89 -8 0
-89 -110 0
-89 -143 0
-92 -41 0
-92 -44 0
-92 -68 0
-92 -74 0
-92 -83 0
-92 -107 0
-92 -131 0
-95 -35 0
-95 -44 0
-95 -71 0
-95 -86 0
-95 -116 0
-98 -11 0
-98 -41 0
-98 -44 0
-98 -86 0
-98 -119 0
-98 -125 0
-101 -35 0
-101 -38 0
-101 -50 0
-101 -116 0
-101 -125 0
-104 -2 0
-104 -29 0
-104 -122 0
-104 -137 0
-107 -8 0
-107 -92 0
-107 -125 0
-107 -131 0
-107 -137 0
-107 -140 0
-107 -143 0
-110 -11 0
-110 -23 0
-110 -47 0
-110 -71 0
-110 -77 0
-110 -89 0
-110 -122 0
-113 -29 0
-113 -32 0
-113 -50 0
-113 -119 0
-113 -149 0
-116 -41 0
-116 -65 0
-116 -95 0
-116 -101 0
-116 -119 0
-116 -122 0
-116 -143 0
-116 -146 0
-119 -2 0
-119 -44 0
-119 -98 0
-119 -113 0
-119 -116 0
-119 -137 0
-119 -149 0
-122 -23 0
-122 -47 0
-122 -83 0
-122 -104 0
-122 -110 0
-122 -116 0
-122 -146 0
-122 -149 0
-125 -8 0
-125 -59 0
-125 -68 0
-125 -98 0
-125 -101 0
-125 -107 0
-125 -137 0
-125 -140 0
-128 -14 0
-128 -41 0
-128 -65 0
-128 -74 0
-128 -86 0
-128 -131 0
-131 -2 0
-131 -26 0
-131 -32 0
-131 -38 0
-131 -56 0
-131 -68 0
-131 -92 0
-131 -107 0
-131 -128 0
-131 -146 0
-134 -11 0
-134 -14 0
-134 -23 0
-134 -32 0
-134 -53 0
-134 -56 0
-134 -77 0
-134 -83 0
-134 -86 0
-137 -8 0
-137 -17 0
-137 -44 0
-137 -59 0
-137 -104 0
-137 -107 0
-137 -119 0
-137 -125 0
-140 -59 0
-140 -62 0
-140 -74 0
-140 -107 0
-140 -125 0
-143 -5 0
-143 -29 0
-143 -71 0
-143 -74 0
-143 -89 0
-143 -107 0
-143 -116 0
-146 -11 0
-146 -26 0
-146 -35 0
-146 -41 0
-146 -59 0
-146 -116 0
-146 -122 0
-146 -131 0
-149 -38 0
-149 -47 0
-149 -77 0
-149 -113 0
-149 -119 0
-149 -122 0
-3 -24 0
-3 -78 0
-3 -105 0
-3 -120 0
-3 -132 0
-6 -18 0
-6 -21 0
-6 -48 0
-6 -144 0
-9 -63 0
-9 -66 0
-9 -90 0
-9 -108 0
-9 -126 0
-9 -138 0
-12 -99 0
-12 -111 0
-12 -135 0
-12 -147 0
-15 -18 0
-15 -21 0
-15 -129 0
-15 -135 0
-18 -6 0
-18 -15 0
-18 -45 0
-18 -51 0
-18 -138 0
-21 -6 0
-21 -15 0
-21 -27 0
-21 -30 0
-21 -66 0
-21 -69 0
-24 -3 0
-24 -27 0
-24 -66 0
-24 -87 0
-24 -111 0
-24 -123 0
-24 -135 0
-27 -21 0
-27 -24 0
-27 -51 0
-27 -66 0
-27 -132 0
-27 -147 0
-30 -21 0
-30 -105 0
-30 -114 0
-30 -144 0
-33 -45 0
-33 -72 0
-33 -114 0
-33 -132 0
-33 -135 0
-36 -48 0
-36 -96 0
-36 -102 0
-36 -147 0
-39 -51 0
-39 -81 0
-39 -87 0
-39 -102 0
-39 -132 0
-39 -150 0
-42 -93 0
-42 -99 0
-42 -117 0
-42 -129 0
-42 -147 0
-45 -18 0
-45 -33 0
-45 -93 0
-45 -96 0
-45 -99 0
-45 -120 0
-45 -138 0
-48 -6 0
-48 -36 0
-48 -63 0
-48 -66 0
-48 -84 0
-48 -111 0
-48 -123 0
-48 -150 0
-51 -18 0
-51 -27 0
-51 -39 0
-51 -72 0
-51 -81 0
-51 -102 0
-51 -114 0
-54 -57 0
-54 -60 0
-54 -135 0
-57 -54 0
-57 -66 0
-57 -69 0
-57 -87 0
-57 -132 0
-57 -135 0
-60 -54 0
-60 -72 0
-60 -126 0
-60 -138 0
-60 -141 0
-60 -147 0
-63 -9 0
-63 -48 0
-63 -81 0
-63 -141 0
-66 -9 0
-66 -21 0
-66 -24 0
-66 -27 0
-66 -48 0
-66 -57 0
-66 -72 0
-66 -81 0
-66 -84 0
-66 -117 0
-66 -129 0
-69 -21 0
-69 -57 0
-69 -93 0
-69 -126 0
-69 -132 0
-72 -33 0
-72 -51 0
-72 -60 0
-72 -66 0
-72 -96 0
-72 -111 0
-72 -144 0
-75 -78 0
-75 -93 0
-75 -129 0
-75 -141 0
-75 -144 0
-78 -3 0
-78 -75 0
-78 -111 0
-78 -135 0
-78 -150 0
-81 -39 0
-81 -51 0
-81 -63 0
-81 -66 0
-84 -48 0
-84 -66 0
-84 -93 0
-84 -123 0
-84 -135 0
-87 -24 0
-87 -39 0
-87 -57 0
-87 -96 0
-87 -99 0
-87 -129 0
-87 -135 0
-90 -9 0
-90 -111 0
-90 -144 0
-93 -42 0
-93 -45 0
-93 -69 0
-93 -75 0
-93 -84 0
-93 -108 0
-93 -132 0
-96 -36 0
-96 -45 0
-96 -72 0
-96 -87 0
-96 -117 0
-99 -12 0
-99 -42 0
-99 -45 0
-99 -87 0
-99 -120 0
-99 -126 0
-102 -36 0
-102 -39 0
-102 -51 0
-102 -117 0
-102 -126 0
-105 -3 0
-105 -30 0
-105 -123 0
-105 -138 0
-108 -9 0
-108 -93 0
-108 -126 0
-108 -132 0
-108 -138 0
-108 -141 0
-108 -144 0
-111 -12 0
-111 -24 0
-111 -48 0
-111 -72 0
-111 -78 0
-111 -90 0
-111 -123 0
-114 -30 0
-114 -33 0
-114 -51 0
-114 -120 0
-114 -150 0
-117 -42 0
-117 -66 0
-117 -96 0
-117 -102 0
-117 -120 0
-117 -123 0
-117 -144 0
-117 -147 0
-120 -3 0
-120 -45 0
-120 -99 0
-120 -114 0
-120 -117 0
-120 -138 0
-120 -150 0
-123 -24 0
-123 -48 0
-123 -84 0
-123 -105 0
-123 -111 0
-123 -117 0
-123 -147 0
-123 -150 0
-126 -9 0
-126 -60 0
-126 -69 0
-126 -99 0
-126 -102 0
-126 -108 0
-126 -138 0
-126 -141 0
-129 -15 0
-129 -42 0
-129 -66 0
-129 -75 0
-129 -87 0
-129 -132 0
-132 -3 0
-132 -27 0
-132 -33 0
-132 -39 0
-132 -57 0
-132 -69 0
-132 -93 0
-132 -108 0
-132 -129 0
-132 -147 0
-135 -12 0
-135 -15 0
-135 -24 0
-135 -33 0
-135 -54 0
-135 -57 0
-135 -78 0
-135 -84 0
-135 -87 0
-138 -9 0
-138 -18 0
-138 -45 0
-138 -60 0
-138 -105 0
-138 -108 0
-138 -120 0
-138 -126 0
-141 -60 0
-141 -63 0
-141 -75 0
-141 -108 0
-141 -126 0
-144 -6 0
-144 -30 0
-144 -72 0
-144 -75 0
-144 -90 0
-144 -108 0
-144 -117 0
-147 -12 0
-147 -27 0
-147 -36 0
-147 -42 0
-147 -60 0
-147 -117 0
-147 -123 0
-147 -132 0
-150 -39 0
-150 -48 0
-150 -78 0
-150 -114 0
-150 -120 0
-150 -123 0
